unsat
(:binary-propagations  37
 :conflicts            1
 :final-checks         1
 :max-generation       1
 :max-memory           23.30
 :memory               20.86
 :mk-bool-var          514
 :mk-clause            178
 :mk-clause-binary     666
 :num-allocs           6461896
 :num-checks           1
 :propagations         37
 :quant-instantiations 98
 :restarts             1
 :rlimit-count         72120
 :time                 0.02)
